p tw 33 37
1 2
2 13
3 4
4 5
4 7
5 6
6 26
7 8
8 9
9 10
10 11
11 12
12 14
12 23
13 24
14 15
15 16
15 21
16 17
17 18
18 19
19 20
20 21
20 9
21 22
22 26
23 25
24 28
25 26
26 27
28 29
29 30
29 5
30 31
31 32
32 33
33 3
